
******************************************************************************
This program contains Ipopt, a library for large-scale nonlinear optimization.
 Ipopt is released as open source code under the Eclipse Public License (EPL).
         For more information visit http://projects.coin-or.org/Ipopt
******************************************************************************

This is Ipopt version 3.12.6, running with linear solver ma57.

Number of nonzeros in equality constraint Jacobian...:        0
Number of nonzeros in inequality constraint Jacobian.:     5992
Number of nonzeros in Lagrangian Hessian.............:        0

Total number of variables............................:        4
                     variables with only lower bounds:        0
                variables with lower and upper bounds:        0
                     variables with only upper bounds:        0
Total number of equality constraints.................:        0
Total number of inequality constraints...............:     2000
        inequality constraints with only lower bounds:     1000
   inequality constraints with lower and upper bounds:        0
        inequality constraints with only upper bounds:     1000

iter    objective    inf_pr   inf_du lg(mu)  ||d||  lg(rg) alpha_du alpha_pr  ls
   0  1.2000000e+00 0.00e+00 1.99e+00  -1.0 0.00e+00    -  0.00e+00 0.00e+00   0
   1  1.3989650e+00 0.00e+00 1.08e-02  -1.0 1.99e-01    -  9.89e-01 1.00e+00f  1
   2  1.3158170e+00 0.00e+00 8.07e-07  -3.8 9.82e-02    -  1.00e+00 1.00e+00f  1
   3  8.0711190e-01 0.00e+00 6.94e-04  -5.7 1.24e+00    -  6.63e-01 4.67e-01f  1
   4  6.9071533e-01 0.00e+00 1.09e-01  -5.7 7.29e-01    -  5.57e-01 2.65e-01f  1
   5  5.6748905e-01 0.00e+00 8.40e-02  -5.7 5.35e-01    -  5.77e-01 4.67e-01f  1
   6  5.6413518e-01 0.00e+00 8.33e-02  -5.7 1.97e-01    -  5.33e-02 3.96e-02f  1
   7  5.5957304e-01 0.00e+00 7.36e-02  -5.7 1.83e-01    -  3.11e-02 5.82e-02f  1
   8  5.5276824e-01 0.00e+00 4.09e-01  -5.7 1.62e-01    -  8.82e-03 9.84e-02f  1
   9  5.4569729e-01 0.00e+00 3.51e-01  -5.7 1.38e-01    -  1.97e-02 1.20e-01f  1
iter    objective    inf_pr   inf_du lg(mu)  ||d||  lg(rg) alpha_du alpha_pr  ls
  10  5.3927031e-01 0.00e+00 3.01e-01  -5.7 1.08e-01    -  3.96e-02 1.40e-01f  1
  11  5.3468118e-01 0.00e+00 2.55e-01  -5.7 7.14e-02    -  6.61e-02 1.52e-01f  1
  12  5.3470028e-01 0.00e+00 2.51e-01  -5.7 4.94e-04    -  1.00e+00 9.94e-02f  4
  13  5.3467038e-01 0.00e+00 1.84e-11  -5.7 4.19e-05    -  1.00e+00 1.00e+00f  1
  14  5.3466193e-01 0.00e+00 8.73e-02  -8.6 1.50e-05    -  1.00e+00 5.63e-01f  1
  15  5.3465864e-01 0.00e+00 2.51e-14  -8.6 4.02e-06    -  1.00e+00 1.00e+00f  1

Number of Iterations....: 15

                                   (scaled)                 (unscaled)
Objective...............:   5.3465864063981117e-01    5.3465864063981117e-01
Dual infeasibility......:   2.5091040356528538e-14    2.5091040356528538e-14
Constraint violation....:   0.0000000000000000e+00    0.0000000000000000e+00
Complementarity.........:   3.1512774181094593e-09    3.1512774181094593e-09
Overall NLP error.......:   3.1512774181094593e-09    3.1512774181094593e-09


Number of objective function evaluations             = 19
Number of objective gradient evaluations             = 16
Number of equality constraint evaluations            = 0
Number of inequality constraint evaluations          = 19
Number of equality constraint Jacobian evaluations   = 0
Number of inequality constraint Jacobian evaluations = 16
Number of Lagrangian Hessian evaluations             = 15
Total CPU secs in IPOPT (w/o function evaluations)   =      0.040
Total CPU secs in NLP function evaluations           =      0.000

EXIT: Optimal Solution Found.

************************ CUTEst statistics ************************


 Package used            :  IPOPT
 Problem                 :  SIPOW3    
 # variables             =               4
 # constraints           =            2000
 # objective functions   =        0.3600000E+02
 # objective gradients   =        0.1700000E+02
 # objective Hessians    =        0.1600000E+02
 # Hessian-vector prdct  =        0.0000000E+00
 # constraints functions =        0.3700000E+02
 # constraints gradients =        0.1800000E+02
 # constraints Hessians  =        0.1600000E+02
 Exit code               =               0
 Final f                 =   0.5346586E+00
 Set up time             =            0.02 seconds
 Solve time              =            0.09 seconds


******************************************************************

System Time =       0.0299999993 s.
